c nIsolatedPIs 0
c maxPI 32
p cnf 234 607
c gate 33 -4 20 0
-4 -33 0
20 -33 0
4 -20 33 0
c gate 34 -3 19 0
-3 -34 0
19 -34 0
3 -19 34 0
c gate 35 2 -18 0
2 -35 0
-18 -35 0
-2 18 35 0
c gate 36 -2 18 0
-2 -36 0
18 -36 0
2 -18 36 0
c gate 37 -1 17 0
-1 -37 0
17 -37 0
1 -17 37 0
c gate 38 -36 -37 0
-36 -38 0
-37 -38 0
36 37 38 0
c gate 39 3 -19 0
3 -39 0
-19 -39 0
-3 19 39 0
c gate 40 -38 -39 0
-38 -40 0
-39 -40 0
38 39 40 0
c gate 41 -35 40 0
-35 -41 0
40 -41 0
35 -40 41 0
c gate 42 -34 -41 0
-34 -42 0
-41 -42 0
34 41 42 0
c gate 43 -33 42 0
-33 -43 0
42 -43 0
33 -42 43 0
c gate 44 4 -20 0
4 -44 0
-20 -44 0
-4 20 44 0
c gate 45 5 21 0
5 -45 0
21 -45 0
-5 -21 45 0
c gate 46 -5 -21 0
-5 -46 0
-21 -46 0
5 21 46 0
c gate 47 -45 -46 0
-45 -47 0
-46 -47 0
45 46 47 0
c gate 48 -44 -47 0
-44 -48 0
-47 -48 0
44 47 48 0
c gate 49 -43 48 0
-43 -49 0
48 -49 0
43 -48 49 0
c gate 50 -6 -22 0
-6 -50 0
-22 -50 0
6 22 50 0
c gate 51 6 22 0
6 -51 0
22 -51 0
-6 -22 51 0
c gate 52 -50 -51 0
-50 -52 0
-51 -52 0
50 51 52 0
c gate 53 -5 21 0
-5 -53 0
21 -53 0
5 -21 53 0
c gate 54 -52 -53 0
-52 -54 0
-53 -54 0
52 53 54 0
c gate 55 -49 54 0
-49 -55 0
54 -55 0
49 -54 55 0
c gate 56 40 42 0
40 -56 0
42 -56 0
-40 -42 56 0
c gate 57 -33 48 0
-33 -57 0
48 -57 0
33 -48 57 0
c gate 58 56 57 0
56 -58 0
57 -58 0
-56 -57 58 0
c gate 59 -55 -58 0
-55 -59 0
-58 -59 0
55 58 59 0
c gate 60 56 -57 0
56 -60 0
-57 -60 0
-56 57 60 0
c gate 61 35 37 0
35 -61 0
37 -61 0
-35 -37 61 0
c gate 62 -15 -31 0
-15 -62 0
-31 -62 0
15 31 62 0
c gate 63 15 31 0
15 -63 0
31 -63 0
-15 -31 63 0
c gate 64 -62 -63 0
-62 -64 0
-63 -64 0
62 63 64 0
c gate 65 -14 -30 0
-14 -65 0
-30 -65 0
14 30 65 0
c gate 66 14 30 0
14 -66 0
30 -66 0
-14 -30 66 0
c gate 67 -65 -66 0
-65 -67 0
-66 -67 0
65 66 67 0
c gate 68 -13 -29 0
-13 -68 0
-29 -68 0
13 29 68 0
c gate 69 12 28 0
12 -69 0
28 -69 0
-12 -28 69 0
c gate 70 -12 -28 0
-12 -70 0
-28 -70 0
12 28 70 0
c gate 71 -69 -70 0
-69 -71 0
-70 -71 0
69 70 71 0
c gate 72 -11 -27 0
-11 -72 0
-27 -72 0
11 27 72 0
c gate 73 -10 -26 0
-10 -73 0
-26 -73 0
10 26 73 0
c gate 74 9 25 0
9 -74 0
25 -74 0
-9 -25 74 0
c gate 75 -3 -19 0
-3 -75 0
-19 -75 0
3 19 75 0
c gate 76 2 18 0
2 -76 0
18 -76 0
-2 -18 76 0
c gate 77 -2 -18 0
-2 -77 0
-18 -77 0
2 18 77 0
c gate 78 1 17 0
1 -78 0
17 -78 0
-1 -17 78 0
c gate 79 -77 78 0
-77 -79 0
78 -79 0
77 -78 79 0
c gate 80 -76 -79 0
-76 -80 0
-79 -80 0
76 79 80 0
c gate 81 -75 -80 0
-75 -81 0
-80 -81 0
75 80 81 0
c gate 82 4 20 0
4 -82 0
20 -82 0
-4 -20 82 0
c gate 83 3 19 0
3 -83 0
19 -83 0
-3 -19 83 0
c gate 84 -82 -83 0
-82 -84 0
-83 -84 0
82 83 84 0
c gate 85 -81 84 0
-81 -85 0
84 -85 0
81 -84 85 0
c gate 86 -4 -20 0
-4 -86 0
-20 -86 0
4 20 86 0
c gate 87 -46 -86 0
-46 -87 0
-86 -87 0
46 86 87 0
c gate 88 -85 87 0
-85 -88 0
87 -88 0
85 -87 88 0
c gate 89 -45 -88 0
-45 -89 0
-88 -89 0
45 88 89 0
c gate 90 -50 -89 0
-50 -90 0
-89 -90 0
50 89 90 0
c gate 91 7 -23 0
7 -91 0
-23 -91 0
-7 23 91 0
c gate 92 -7 23 0
-7 -92 0
23 -92 0
7 -23 92 0
c gate 93 -91 -92 0
-91 -93 0
-92 -93 0
91 92 93 0
c gate 94 -51 -93 0
-51 -94 0
-93 -94 0
51 93 94 0
c gate 95 -90 94 0
-90 -95 0
94 -95 0
90 -94 95 0
c gate 96 8 24 0
8 -96 0
24 -96 0
-8 -24 96 0
c gate 97 -8 -24 0
-8 -97 0
-24 -97 0
8 24 97 0
c gate 98 -96 -97 0
-96 -98 0
-97 -98 0
96 97 98 0
c gate 99 95 98 0
95 -99 0
98 -99 0
-95 -98 99 0
c gate 100 -7 -23 0
-7 -100 0
-23 -100 0
7 23 100 0
c gate 101 -96 100 0
-96 -101 0
100 -101 0
96 -100 101 0
c gate 102 -9 -25 0
-9 -102 0
-25 -102 0
9 25 102 0
c gate 103 -97 -102 0
-97 -103 0
-102 -103 0
97 102 103 0
c gate 104 -101 103 0
-101 -104 0
103 -104 0
101 -103 104 0
c gate 105 -99 104 0
-99 -105 0
104 -105 0
99 -104 105 0
c gate 106 -74 -105 0
-74 -106 0
-105 -106 0
74 105 106 0
c gate 107 -73 -106 0
-73 -107 0
-106 -107 0
73 106 107 0
c gate 108 11 27 0
11 -108 0
27 -108 0
-11 -27 108 0
c gate 109 10 26 0
10 -109 0
26 -109 0
-10 -26 109 0
c gate 110 -108 -109 0
-108 -110 0
-109 -110 0
108 109 110 0
c gate 111 -107 110 0
-107 -111 0
110 -111 0
107 -110 111 0
c gate 112 -72 -111 0
-72 -112 0
-111 -112 0
72 111 112 0
c gate 113 71 112 0
71 -113 0
112 -113 0
-71 -112 113 0
c gate 114 13 29 0
13 -114 0
29 -114 0
-13 -29 114 0
c gate 115 -69 -114 0
-69 -115 0
-114 -115 0
69 114 115 0
c gate 116 -113 115 0
-113 -116 0
115 -116 0
113 -115 116 0
c gate 117 -68 -116 0
-68 -117 0
-116 -117 0
68 116 117 0
c gate 118 67 -117 0
67 -118 0
-117 -118 0
-67 117 118 0
c gate 119 -65 -118 0
-65 -119 0
-118 -119 0
65 118 119 0
c gate 120 64 -119 0
64 -120 0
-119 -120 0
-64 119 120 0
c gate 121 -62 -120 0
-62 -121 0
-120 -121 0
62 120 121 0
c gate 122 16 -32 0
16 -122 0
-32 -122 0
-16 32 122 0
c gate 123 -16 32 0
-16 -123 0
32 -123 0
16 -32 123 0
c gate 124 -122 -123 0
-122 -124 0
-123 -124 0
122 123 124 0
c gate 125 -121 -124 0
-121 -125 0
-124 -125 0
121 124 125 0
c gate 126 67 -115 0
67 -126 0
-115 -126 0
-67 115 126 0
c gate 127 -66 -126 0
-66 -127 0
-126 -127 0
66 126 127 0
c gate 128 64 127 0
64 -128 0
127 -128 0
-64 -127 128 0
c gate 129 -62 -128 0
-62 -129 0
-128 -129 0
62 128 129 0
c gate 130 125 129 0
125 -130 0
129 -130 0
-125 -129 130 0
c gate 131 -61 -130 0
-61 -131 0
-130 -131 0
61 130 131 0
c gate 132 -56 -131 0
-56 -132 0
-131 -132 0
56 131 132 0
c gate 133 -124 -129 0
-124 -133 0
-129 -133 0
124 129 133 0
c gate 134 121 133 0
121 -134 0
133 -134 0
-121 -133 134 0
c gate 135 131 -134 0
131 -135 0
-134 -135 0
-131 134 135 0
c gate 136 -67 115 0
-67 -136 0
115 -136 0
67 -115 136 0
c gate 137 -126 -136 0
-126 -137 0
-136 -137 0
126 136 137 0
c gate 138 -67 117 0
-67 -138 0
117 -138 0
67 -117 138 0
c gate 139 -118 -138 0
-118 -139 0
-138 -139 0
118 138 139 0
c gate 140 137 139 0
137 -140 0
139 -140 0
-137 -139 140 0
c gate 141 -137 -139 0
-137 -141 0
-139 -141 0
137 139 141 0
c gate 142 -140 -141 0
-140 -142 0
-141 -142 0
140 141 142 0
c gate 143 -74 -109 0
-74 -143 0
-109 -143 0
74 109 143 0
c gate 144 -104 143 0
-104 -144 0
143 -144 0
104 -143 144 0
c gate 145 -72 -73 0
-72 -145 0
-73 -145 0
72 73 145 0
c gate 146 -144 145 0
-144 -146 0
145 -146 0
144 -145 146 0
c gate 147 -108 -146 0
-108 -147 0
-146 -147 0
108 146 147 0
c gate 148 -71 112 0
-71 -148 0
112 -148 0
71 -112 148 0
c gate 149 147 -148 0
147 -149 0
-148 -149 0
-147 148 149 0
c gate 150 71 -112 0
71 -150 0
-112 -150 0
-71 112 150 0
c gate 151 -147 -150 0
-147 -151 0
-150 -151 0
147 150 151 0
c gate 152 -149 -151 0
-149 -152 0
-151 -152 0
149 151 152 0
c gate 153 142 152 0
142 -153 0
152 -153 0
-142 -152 153 0
c gate 154 121 124 0
121 -154 0
124 -154 0
-121 -124 154 0
c gate 155 -125 -154 0
-125 -155 0
-154 -155 0
125 154 155 0
c gate 156 124 129 0
124 -156 0
129 -156 0
-124 -129 156 0
c gate 157 -133 -156 0
-133 -157 0
-156 -157 0
133 156 157 0
c gate 158 -155 157 0
-155 -158 0
157 -158 0
155 -157 158 0
c gate 159 155 -157 0
155 -159 0
-157 -159 0
-155 157 159 0
c gate 160 -64 -127 0
-64 -160 0
-127 -160 0
64 127 160 0
c gate 161 -128 -160 0
-128 -161 0
-160 -161 0
128 160 161 0
c gate 162 -64 119 0
-64 -162 0
119 -162 0
64 -119 162 0
c gate 163 -120 -162 0
-120 -163 0
-162 -163 0
120 162 163 0
c gate 164 161 -163 0
161 -164 0
-163 -164 0
-161 163 164 0
c gate 165 -161 163 0
-161 -165 0
163 -165 0
161 -163 165 0
c gate 166 -68 -114 0
-68 -166 0
-114 -166 0
68 114 166 0
c gate 167 113 -166 0
113 -167 0
-166 -167 0
-113 166 167 0
c gate 168 -141 -167 0
-141 -168 0
-167 -168 0
141 167 168 0
c gate 169 -165 -168 0
-165 -169 0
-168 -169 0
165 168 169 0
c gate 170 -164 -169 0
-164 -170 0
-169 -170 0
164 169 170 0
c gate 171 -159 -170 0
-159 -171 0
-170 -171 0
159 170 171 0
c gate 172 -158 -171 0
-158 -172 0
-171 -172 0
158 171 172 0
c gate 173 -153 172 0
-153 -173 0
172 -173 0
153 -172 173 0
c gate 174 -99 -113 0
-99 -174 0
-113 -174 0
99 113 174 0
c gate 175 142 174 0
142 -175 0
174 -175 0
-142 -174 175 0
c gate 176 -173 -175 0
-173 -176 0
-175 -176 0
173 175 176 0
c gate 177 135 176 0
135 -177 0
176 -177 0
-135 -176 177 0
c gate 178 -132 -177 0
-132 -178 0
-177 -178 0
132 177 178 0
c gate 179 -60 178 0
-60 -179 0
178 -179 0
60 -178 179 0
c gate 180 10 -26 0
10 -180 0
-26 -180 0
-10 26 180 0
c gate 181 8 -24 0
8 -181 0
-24 -181 0
-8 24 181 0
c gate 182 -74 -102 0
-74 -182 0
-102 -182 0
74 102 182 0
c gate 183 -181 -182 0
-181 -183 0
-182 -183 0
181 182 183 0
c gate 184 -9 25 0
-9 -184 0
25 -184 0
9 -25 184 0
c gate 185 -10 26 0
-10 -185 0
26 -185 0
10 -26 185 0
c gate 186 -184 -185 0
-184 -186 0
-185 -186 0
184 185 186 0
c gate 187 -183 186 0
-183 -187 0
186 -187 0
183 -186 187 0
c gate 188 -180 -187 0
-180 -188 0
-187 -188 0
180 187 188 0
c gate 189 55 -92 0
55 -189 0
-92 -189 0
-55 92 189 0
c gate 190 6 -22 0
6 -190 0
-22 -190 0
-6 22 190 0
c gate 191 -92 190 0
-92 -191 0
190 -191 0
92 -190 191 0
c gate 192 -91 -191 0
-91 -192 0
-191 -192 0
91 191 192 0
c gate 193 -189 192 0
-189 -193 0
192 -193 0
189 -192 193 0
c gate 194 -98 -193 0
-98 -194 0
-193 -194 0
98 193 194 0
c gate 195 186 194 0
186 -195 0
194 -195 0
-186 -194 195 0
c gate 196 188 -195 0
188 -196 0
-195 -196 0
-188 195 196 0
c gate 197 -72 -108 0
-72 -197 0
-108 -197 0
72 108 197 0
c gate 198 196 -197 0
196 -198 0
-197 -198 0
-196 197 198 0
c gate 199 -52 93 0
-52 -199 0
93 -199 0
52 -93 199 0
c gate 200 -59 -199 0
-59 -200 0
-199 -200 0
59 199 200 0
c gate 201 59 -179 0
59 -201 0
-179 -201 0
-59 179 201 0
c gate 202 -200 -201 0
-200 -202 0
-201 -202 0
200 201 202 0
c gate 203 98 192 0
98 -203 0
192 -203 0
-98 -192 203 0
c gate 204 -193 203 0
-193 -204 0
203 -204 0
193 -203 204 0
c gate 205 202 -204 0
202 -205 0
-204 -205 0
-202 204 205 0
c gate 206 -194 -205 0
-194 -206 0
-205 -206 0
194 205 206 0
c gate 207 -180 -185 0
-180 -207 0
-185 -207 0
180 185 207 0
c gate 208 -182 207 0
-182 -208 0
207 -208 0
182 -207 208 0
c gate 209 194 -208 0
194 -209 0
-208 -209 0
-194 208 209 0
c gate 210 -206 -209 0
-206 -210 0
-209 -210 0
206 209 210 0
c gate 211 -196 197 0
-196 -211 0
197 -211 0
196 -197 211 0
c gate 212 -198 -211 0
-198 -212 0
-211 -212 0
198 211 212 0
c gate 213 188 -212 0
188 -213 0
-212 -213 0
-188 212 213 0
c gate 214 210 -213 0
210 -214 0
-213 -214 0
-210 213 214 0
c gate 215 -198 -214 0
-198 -215 0
-214 -215 0
198 214 215 0
c gate 216 -64 -67 0
-64 -216 0
-67 -216 0
64 67 216 0
c gate 217 -71 124 0
-71 -217 0
124 -217 0
71 -124 217 0
c gate 218 -166 217 0
-166 -218 0
217 -218 0
166 -217 218 0
c gate 219 216 218 0
216 -219 0
218 -219 0
-216 -218 219 0
c gate 220 198 219 0
198 -220 0
219 -220 0
-198 -219 220 0
c gate 221 -215 -220 0
-215 -221 0
-220 -221 0
215 220 221 0
c gate 222 -179 221 0
-179 -222 0
221 -222 0
179 -221 222 0
c gate 223 95 -152 0
95 -223 0
-152 -223 0
-95 152 223 0
c gate 224 -113 -223 0
-113 -224 0
-223 -224 0
113 223 224 0
c gate 225 142 224 0
142 -225 0
224 -225 0
-142 -224 225 0
c gate 226 172 -225 0
172 -226 0
-225 -226 0
-172 225 226 0
c gate 227 135 -226 0
135 -227 0
-226 -227 0
-135 226 227 0
c gate 228 -132 -227 0
-132 -228 0
-227 -228 0
132 227 228 0
c gate 229 -60 228 0
-60 -229 0
228 -229 0
60 -228 229 0
c gate 230 -221 229 0
-221 -230 0
229 -230 0
221 -229 230 0
c gate 231 -222 -230 0
-222 -231 0
-230 -231 0
222 230 231 0
c gate 232 59 -231 0
59 -232 0
-231 -232 0
-59 231 232 0
c gate 233 -59 231 0
-59 -233 0
231 -233 0
59 -231 233 0
c gate 234 -232 -233 0
-232 -234 0
-233 -234 0
232 233 234 0
c PO
-234 0
